 &CONTROL
                       title = 'Zr45Cu45Al10',
                 calculation = 'scf',
                restart_mode = 'from_scratch',
                      outdir = '/scratch/rmnvm/ary.junior/work/MG-NMR/ML/big-data-full/Zr45Cu45Al10/c/md/lammps/100/1/2000/1',
                      wfcdir = '/scratch/rmnvm/ary.junior/work/MG-NMR/ML/big-data-full/Zr45Cu45Al10/c/md/lammps/100/1/2000/1',
                  pseudo_dir = '/scratch/rmnvm/ary.junior/UPFs/',
                      prefix = 'Zr45Cu45Al10',
                   verbosity = 'high',
                     tprnfor = .true.,
                  wf_collect = .true.
 /
 &SYSTEM
                       ibrav = 0,
                   celldm(1) = 1.8897265,
                         nat = 100,
                        ntyp = 3,
                        nbnd = 1034,
                     ecutwfc = 70,
                     ecutrho = 560,
                 occupations = 'smearing',
                    smearing = 'fd',
                     degauss = 0.008,
                       nosym = .true.,
                       noinv = .true.
 /
 &ELECTRONS
            electron_maxstep = 100,
                    conv_thr = 1.0D-6,
                 mixing_beta = 0.4
 /
CELL_PARAMETERS alat
 12.006900   6.003450   0.000000
  0.000000  12.006900   0.000000
  0.000000   0.000000  12.006900
ATOMIC_SPECIES
   Al  26.9815   Al.aryjr-1.0.0-ld1.UPF
   Cu  63.5463   Cu.aryjr-1.0.0-ld1.UPF
   Zr  91.2240   Zr.aryjr-1.0.0-ld1.UPF
ATOMIC_POSITIONS {crystal}
Cu   0.046012   0.077356   0.149787
Cu   0.026811   0.063935   0.365980
Al   0.096670   0.186997   0.502812
Zr   0.250782   0.155086   0.694129
Zr   0.111243   0.187421   0.931515
Zr   0.223581   0.382977   0.051790
Zr   0.123054   0.269795   0.263369
Zr  -0.010280   0.403516   0.430792
Zr   0.064990   0.361719   0.669963
Cu   0.216615   0.366824   0.816387
Cu   0.090988   0.567033   0.088375
Cu   0.183401   0.726123   0.191338
Zr   0.220070   0.518627   0.277639
Al   0.182657   0.745175   0.407736
Cu   0.115052   0.575171   0.507503
Zr  -0.001533   0.604311   0.703592
Cu   0.155433   0.541180   0.883903
Cu  -0.020109   0.620175   0.937552
Cu   0.148989   0.967933   0.025339
Zr   0.172332   0.932469   0.253140
Zr   0.144647   0.959868   0.559115
Cu   0.157728   0.769139   0.659508
Cu   0.134164   0.987536   0.796521
Zr   0.128186   0.783357   0.888415
Zr   0.287439   0.139370   0.120442
Cu   0.475779   0.049800   0.031159
Cu   0.494529   0.142842   0.221637
Zr   0.311058   0.131803   0.402164
Cu   0.460519   0.213535   0.592843
Zr   0.440877  -0.005342   0.571958
Cu   0.307770   0.035967   0.912731
Cu   0.343214   0.232642   0.906542
Cu   0.415512   0.483259   0.122018
Al   0.368343   0.322279   0.254155
Zr   0.268669   0.363708   0.498397
Cu   0.490703   0.283197   0.413144
Cu   0.387320   0.336921   0.726813
Zr   0.443582   0.488243   0.898313
Cu   0.277910   0.619976   0.041882
Zr   0.395412   0.732677   0.291559
Cu   0.330798   0.590014   0.470166
Cu   0.474441   0.664362   0.723733
Zr   0.270417   0.566581   0.688673
Cu   0.365354   0.709756   0.886745
Zr   0.329595   0.856768   0.070402
Cu   0.392910   0.965031   0.248060
Cu   0.320566   0.906094   0.418043
Cu   0.336143   0.777797   0.562571
Zr   0.331430   0.881744   0.767333
Al   0.711203   0.159711   0.122571
Zr   0.649468   0.089385   0.372512
Zr   0.689815   0.156060   0.639387
Zr   0.508825   0.098542   0.810298
Cu   0.672910   0.024660   0.978204
Zr   0.536124   0.294822   0.026090
Cu   0.617371   0.488796   0.130389
Cu   0.623837   0.296353   0.252112
Cu   0.695631   0.309734   0.463685
Zr   0.510329   0.501164   0.328448
Zr   0.508869   0.443577   0.573343
Cu   0.597789   0.323468   0.768785
Al   0.693740   0.444121   0.911175
Zr   0.519798   0.670533   0.070659
Cu   0.621593   0.701713   0.290277
Zr   0.544632   0.694799   0.518228
Cu   0.699555   0.541526   0.534207
Cu   0.637361   0.539963   0.736325
Zr   0.647619   0.715194   0.879691
Zr   0.602000   0.915415   0.167532
Cu   0.553429   0.871272   0.387796
Al   0.659569   0.923614   0.569040
Cu   0.556229   0.853020   0.721535
Zr   0.748820   0.959179   0.776811
Al   0.514912   0.886782   0.926119
Cu   0.921001   0.220056   0.083049
Zr   0.867384   0.239122   0.297357
Zr   0.871279   0.000195   0.513353
Zr   0.970434   0.133854   0.719651
Zr   0.766429   0.214755   0.892380
Zr   0.922962   0.005470   0.949855
Cu   0.789181   0.376703   0.095390
Al   0.969246   0.435983   0.180373
Zr   0.766383   0.493531   0.314164
Cu   0.872578   0.226028   0.525325
Zr   0.808657   0.400917   0.675373
Zr   0.948880   0.389711   0.908808
Zr   0.803929   0.601236   0.086498
Zr   0.980691   0.645383   0.312835
Cu   0.803143   0.776590   0.214178
Zr   0.768419   0.734999   0.656079
Cu   0.885369   0.568979   0.523933
Cu   0.814103   0.580929   0.840606
Zr   0.991242   0.807764   0.093990
Cu   0.760537   0.846081   0.008987
Zr   0.849688   0.989227   0.225053
Zr   0.782977   0.776916   0.423979
Cu   0.998165   0.864169   0.365501
Cu   0.994915   0.768500   0.538923
Al   0.968756   0.881312   0.705924
Al   0.878474   0.776039   0.861871
K_POINTS automatic
  2 2 2   1 1 1
