 &CONTROL
                       title = 'Zr49Cu49Al2',
                 calculation = 'scf',
                restart_mode = 'from_scratch',
                      outdir = '/scratch/rmnvm/ary.junior/work/MG-NMR/ML/big-data-full/Zr49Cu49Al2/c/md/lammps/100/21/2000/13',
                      wfcdir = '/scratch/rmnvm/ary.junior/work/MG-NMR/ML/big-data-full/Zr49Cu49Al2/c/md/lammps/100/21/2000/13',
                  pseudo_dir = '/scratch/rmnvm/ary.junior/UPFs/',
                      prefix = 'Zr49Cu49Al2',
                   verbosity = 'high',
                     tprnfor = .true.,
                  wf_collect = .true.
 /
 &SYSTEM
                       ibrav = 0,
                         nat = 100,
                        ntyp = 3,
                        nbnd = 1086,
                     ecutwfc = 70,
                     ecutrho = 560,
                 occupations = 'smearing',
                    smearing = 'fd',
                     degauss = 0.008,
                       nosym = .true.,
                       noinv = .true.
 /
 &ELECTRONS
            electron_maxstep = 100,
                    conv_thr = 1.0D-6,
                 mixing_beta = 0.4
 /
CELL_PARAMETERS {angstrom}
 12.148704   0.000000   0.000000
  0.000000  12.148704   0.000000
  0.000000   0.000000  12.148704
ATOMIC_SPECIES
   Al  26.9815   Al.aryjr-1.0.0-ld1.UPF
   Cu  63.5463   Cu.aryjr-1.0.0-ld1.UPF
   Zr  91.2240   Zr.aryjr-1.0.0-ld1.UPF
ATOMIC_POSITIONS {crystal}
Cu   0.153254   0.227759   0.156785
Zr   0.263245  -0.019007   0.178803
Cu   0.177060   0.131562   0.337375
Cu   0.104100   0.061113   0.591387
Zr   0.017905   0.032719   0.795700
Cu   0.260328   0.065634   0.742821
Cu   0.117775   0.102371   0.986236
Cu   0.260760   0.354983   0.045935
Zr  -0.013252   0.271773   0.306515
Cu   0.218570   0.328560   0.336833
Zr   0.115224   0.469924   0.164343
Zr   0.061504   0.495226   0.434391
Zr   0.138539   0.252321   0.806514
Zr   0.177203   0.460596   0.662095
Cu   0.114055   0.479490   0.930638
Zr   0.117898   0.699747   0.017256
Cu   0.077524   0.732433   0.419172
Cu   0.059599   0.665169   0.613227
Zr   0.225838   0.673715   0.785796
Cu  -0.009115   0.610189   0.807775
Cu   0.041181   0.921188  -0.020219
Cu   0.118152   0.823053   0.223752
Zr   0.176256   0.925013   0.430839
Cu   0.047077   0.804130   0.795629
Cu   0.192997   0.876039   0.670453
Zr   0.377153   0.223598   0.210517
Cu   0.503038   0.037062   0.238231
Cu   0.366755   0.067506   0.384381
Zr   0.265858   0.218898   0.545637
Cu   0.372764   0.226950   0.754146
Zr   0.490901   0.026655   0.821501
Zr   0.334438   0.153859   0.975556
Zr   0.501031   0.417672   0.035618
Al   0.389126   0.454117   0.250694
Cu   0.427012   0.329500   0.418122
Cu   0.281290   0.478618   0.454721
Zr   0.443122   0.421395   0.630128
Zr   0.333089   0.454361   0.848603
Cu   0.316103   0.545697   0.074236
Zr   0.255601   0.643662   0.301827
Zr   0.478697   0.577592   0.439213
Zr   0.280653   0.695218   0.553688
Cu   0.454098   0.633977   0.693791
Zr   0.430258   0.689423   0.939053
Cu   0.322356   0.765897   0.106875
Zr   0.476614   0.932330   0.052491
Zr   0.413557   0.828061   0.341576
Zr   0.392252   0.967963   0.585335
Cu   0.399999   0.819708   0.756193
Zr   0.249266   0.907768   0.911182
Zr   0.595713   0.164118   0.049673
Zr   0.757553   0.079700   0.234388
Cu   0.541049   0.172821   0.366391
Zr   0.535724   0.181923   0.599113
Zr   0.693645   0.135358   0.799984
Cu   0.699698   0.493877   0.123625
Zr   0.615438   0.349616   0.260867
Cu   0.616386   0.382911   0.489958
Zr   0.740639   0.342579   0.674837
Zr   0.741248   0.357570   0.937656
Cu   0.535097   0.294334   0.831901
Zr   0.521930   0.660263   0.180278
Cu   0.676436   0.542266   0.351177
Cu   0.651888   0.749082   0.381196
Zr   0.668597   0.579094   0.619455
Cu   0.572790   0.508070   0.817810
Cu   0.664317   0.608791   0.969628
Cu   0.645303   0.791070   0.028859
Cu   0.636918   0.886836   0.240011
Zr   0.630326   0.975998   0.439749
Cu   0.529505   0.779489   0.579506
Cu   0.624265   0.961147   0.652298
Zr   0.626457   0.765716   0.785810
Cu   0.686673   0.952731   0.936005
Cu   0.798074   0.268716   0.129846
Zr   1.011180   0.029458   0.189107
Zr   0.767437   0.225057   0.430098
Cu   0.970441   0.088018   0.435658
Zr   0.823374   0.072490   0.601801
Cu   0.893415   0.219708   0.800138
Zr   0.868705   0.084973   0.977493
Zr   0.998284   0.294106   0.035003
Zr   0.861649   0.460981   0.252013
Cu   0.813293   0.435098   0.479156
Zr   0.998166   0.275282   0.580603
Cu   0.975689   0.403844   0.817550
Zr   0.913346   0.548455   0.024879
Zr   0.775342   0.698447   0.191604
Al   1.004890   0.654875   0.247730
Zr   0.863686   0.653719   0.461432
Cu   0.923929   0.498135   0.642057
Cu   0.848404   0.717836   0.701202
Cu   0.783801   0.556028   0.819979
Cu   0.949170   0.801276   0.127372
Cu   0.796067   0.910128   0.100126
Zr   0.882006   0.872903   0.344776
Zr   0.975607   0.873587   0.585480
Cu   0.743814   0.824009   0.572221
Cu   0.803646   0.916810   0.761403
Zr   0.857451   0.777648   0.915423
K_POINTS automatic
  2 2 2   1 1 1
